============================[ Problem Statistics ]=============================|                                                                             ||  Number of variables:          4242                                         ||  Number of clauses:           10148                                         ||  Parse time:                   0.54 s                                       ||                                                                             |============================[ Search Statistics ]==============================| Conflicts |          ORIGINAL         |          LEARNT          | Progress ||           |    Vars  Clauses Literals |    Limit  Clauses Lit/Cl |          |===============================================================================|       100 |    1591     6353   855024 |     2329      100     53 | 62.501 % ||       250 |    1591     6353   855024 |     2562      250     75 | 62.495 % |===============================================================================restarts              : 3conflicts             : 298            (368 /sec)decisions             : 565            (0.00 % random) (698 /sec)propagations          : 11851          (14649 /sec)conflict literals     : 23462          (94.75 % deleted)CPU time              : 0.809 sSATISFIABLE